; benchmark generated from python API
(set-info :status unknown)
(declare-fun S_2 () Real)
(declare-fun S_4 () Real)
(declare-fun S_5 () Real)
(declare-fun L_0 () Real)
(declare-fun A_0 () Real)
(declare-fun L_1 () Real)
(declare-fun A_1 () Real)
(declare-fun A_4 () Real)
(declare-fun L_3 () Real)
(declare-fun S_1 () Real)
(declare-fun S_0 () Real)
(declare-fun L_2 () Real)
(declare-fun A_2 () Real)
(declare-fun A_5 () Real)
(declare-fun A_3 () Real)
(declare-fun S_3 () Real)
(assert
 (let (($x3366 (<= (+ (* (- 2.0) S_4) (* (- 1.0) A_0) (* 3.0 S_2) L_0) 0.0)))
 (let ((?x3997 (* 2.0 S_2)))
 (let ((?x437 (* (- 1.0) A_1)))
 (let ((?x424 (* (- 1.0) S_4)))
 (let ((?x5342 (+ ?x424 ?x437 ?x3997 L_1)))
 (let (($x39 (>= L_0 0.0)))
 (let ((?x7479 (* (- 3.0) A_5)))
 (let ((?x4038 (* 3.0 A_4)))
 (let ((?x14311 (* (- 4.0) A_3)))
 (let ((?x13993 (* 4.0 L_3)))
 (let ((?x5618 (* 3.0 S_5)))
 (let ((?x279 (* (- 1.0) L_1)))
 (let ((?x4014 (* (- 2.0) A_5)))
 (let ((?x4024 (* 2.0 A_4)))
 (let ((?x7262 (* (- 3.0) A_3)))
 (let ((?x9909 (* 3.0 L_3)))
 (let ((?x5870 (* 2.0 S_5)))
 (let (($x124748 (<= (+ ?x5870 ?x9909 ?x7262 ?x4024 ?x4014 A_1 ?x279) (- 5.0))))
 (let ((?x448 (* (- 1.0) A_5)))
 (let ((?x2669 (* (- 2.0) A_3)))
 (let ((?x1591 (* 2.0 L_3)))
 (let ((?x296 (* (- 1.0) L_2)))
 (let ((?x36321 (+ A_2 ?x296 S_5 ?x1591 ?x2669 A_4 ?x448)))
 (let (($x118757 (<= ?x36321 (- 5.0))))
 (let (($x76 (= L_3 L_2)))
 (let (($x249852 (or $x76 (not (<= 0.0 (+ (* (/ 1.0 5.0) S_5) ?x437 (* (/ 4.0 5.0) S_0) L_1))) $x118757 $x124748)))
 (let ((?x7426 (* (- 2.0) S_3)))
 (let ((?x1188 (* (- 2.0) L_1)))
 (let ((?x1232 (* 2.0 A_1)))
 (let (($x1714 (<= (+ A_2 ?x296 (* (- 1.0) S_3)) 0.0)))
 (let (($x250852 (or $x76 $x1714 (<= (+ ?x5870 ?x1591 ?x2669 ?x4024 ?x4014 ?x1232 ?x1188 ?x7426) 0.0) (<= (+ ?x5870 ?x1591 ?x2669 ?x4024 ?x4014 (* (- 1.0) S_3) S_0) 0.0))))
 (let (($x44310 (<= (+ A_2 ?x296 S_5 ?x424 L_3 (* (- 1.0) A_3) A_4 ?x448) 0.0)))
 (let (($x112708 (or $x76 $x44310 (<= (+ ?x5870 ?x424 ?x1591 ?x2669 ?x4024 ?x4014 A_1 ?x279) 0.0) (<= (+ ?x5618 ?x424 ?x9909 ?x7262 ?x4038 ?x7479 S_0) 0.0))))
 (let (($x124913 (<= (+ ?x5870 ?x9909 (* (- 1.0) A_3) (* (- 2.0) A_4) A_1 ?x279) (- 5.0))))
 (let ((?x445 (* (- 1.0) A_4)))
 (let ((?x442 (* (- 1.0) A_3)))
 (let ((?x26542 (+ A_2 ?x296 S_5 ?x1591 ?x442 ?x445)))
 (let (($x117005 (<= ?x26542 (- 5.0))))
 (let (($x128333 (or $x76 $x117005 (<= (+ ?x5618 ?x13993 ?x442 (* (- 3.0) A_4) S_0) (- 5.0)) $x124913)))
 (let (($x123977 (<= (+ (* (/ 1.0 2.0) S_5) L_3 ?x442 (* (/ 1.0 2.0) A_1) (* (- (/ 1.0 2.0)) L_1)) (- 5.0))))
 (let (($x120971 (<= (+ (* (/ 3.0 5.0) S_5) L_3 ?x442 (* (/ 2.0 5.0) S_0)) (- 5.0))))
 (let (($x127887 (or $x76 (<= (+ L_3 ?x442 (* (/ 3.0 2.0) S_2) (* (- (/ 1.0 2.0)) S_1)) (- 5.0)))))
 (let (($x247412 (or $x76 $x117005 (<= (+ ?x5870 ?x9909 ?x442 (* (- 2.0) A_4) S_1) (- 5.0)))))
 (let (($x127830 (or $x76 $x1714 (<= (+ S_5 L_3 ?x442 A_4 ?x448 (* (- 1.0) S_3) S_1) 0.0))))
 (let ((?x1312 (* (- 1.0) S_0)))
 (let ((?x1290 (* (- 2.0) L_2)))
 (let ((?x1289 (* 2.0 A_2)))
 (let (($x127751 (or $x76 (<= (+ ?x1289 ?x1290 ?x1591 ?x2669 S_1 ?x1312) (- 10.0)) (<= (+ L_3 ?x442 (* 2.0 S_1) ?x1312) (- 5.0)))))
 (let (($x89966 (<= (+ L_3 ?x442 (* (- (/ 1.0 2.0)) A_0) (* (/ 3.0 2.0) S_2) (* (/ 1.0 2.0) L_0)) (- 5.0))))
 (let (($x127329 (or $x76 (<= (+ L_3 ?x442 (* (/ 4.0 3.0) S_2) (* (- (/ 1.0 3.0)) S_0)) (- 5.0)))))
 (let (($x63459 (<= (+ (* (- 1.0) A_2) L_2 S_5 ?x424 A_4 ?x448 A_1 ?x279) 0.0)))
 (let ((?x9495 (* (/ 3.0 2.0) L_2)))
 (let ((?x9498 (* (- (/ 3.0 2.0)) A_2)))
 (let ((?x62022 (+ ?x9498 ?x9495 (* (/ 3.0 2.0) S_5) ?x424 (* (/ 3.0 2.0) A_4) (* (- (/ 3.0 2.0)) A_5) S_0)))
 (let (($x66 (= L_2 L_1)))
 (let ((?x410 (* (- 1.0) S_2)))
 (let ((?x5016 (* (/ 1.0 2.0) S_4)))
 (let ((?x7655 (* (/ 1.0 2.0) L_2)))
 (let ((?x8151 (* (- (/ 1.0 2.0)) A_2)))
 (let (($x5122 (<= (+ A_1 ?x410 ?x279) 0.0)))
 (let (($x121778 (<= (+ (* (/ 2.0 3.0) A_2) (* (- (/ 2.0 3.0)) L_2) (* (/ 1.0 3.0) S_5) L_3 ?x442) (- 5.0))))
 (let (($x127175 (or $x76 $x121778 (<= (+ (* (/ 1.0 2.0) S_5) L_3 ?x442 (* (/ 1.0 2.0) S_1)) (- 5.0)))))
 (let (($x244268 (or $x66 (<= (+ (* (- 1.0) A_2) L_2 S_5 L_3 ?x445 S_1) (- 5.0)))))
 (let ((?x39239 (* (- (/ 3.0 4.0)) L_1)))
 (let ((?x46162 (* (/ 3.0 4.0) A_1)))
 (let ((?x7959 (* (/ 1.0 4.0) S_5)))
 (let ((?x439 (* (- 1.0) A_2)))
 (let (($x127112 (or $x66 (<= (+ ?x439 L_2 (* (/ 2.0 5.0) S_5) (* (/ 3.0 5.0) S_0)) (- 5.0)) (<= (+ ?x439 L_2 ?x7959 ?x46162 ?x39239) (- 5.0)))))
 (let ((?x1298 (* 3.0 L_2)))
 (let ((?x1297 (* (- 3.0) A_2)))
 (let ((?x28992 (+ ?x1297 ?x1298 S_5 A_4 ?x448 ?x1232 ?x1188)))
 (let (($x121702 (<= (+ (* (- 2.0) A_2) (* 2.0 L_2) S_5 A_4 ?x448 S_0) (- 5.0))))
 (let ((?x36322 (+ A_2 ?x296 L_3 ?x442)))
 (let (($x83676 (<= ?x36322 (- 10.0))))
 (let (($x127012 (or $x76 (<= (+ L_3 ?x442 S_0) (- 20.0)) $x83676 (<= (+ L_3 ?x442 A_1 ?x279) (- 15.0)))))
 (let (($x125335 (<= (+ (* (- 2.0) A_2) (* 2.0 L_2) (* 3.0 S_1) ?x1312) (- 10.0))))
 (let ((?x8502 (* (/ 2.0 3.0) L_1)))
 (let ((?x417 (* (- 1.0) S_3)))
 (let ((?x8451 (* (- (/ 2.0 3.0)) A_1)))
 (let ((?x2403 (* (/ 2.0 3.0) S_5)))
 (let (($x47391 (<= (+ ?x2403 (* (/ 2.0 3.0) A_4) (* (- (/ 2.0 3.0)) A_5) ?x8451 ?x417 S_0 ?x8502) 0.0)))
 (let (($x56 (= L_1 L_0)))
 (let (($x126935 (or $x66 (<= (+ ?x439 L_2 S_5 L_3 ?x445 A_1 ?x279) (- 5.0)) (<= (+ ?x439 L_2 ?x5870 ?x1591 (* (- 2.0) A_4) S_0) (- 5.0)))))
 (let (($x65857 (<= (+ ?x439 L_2 S_5 A_4 ?x448 ?x437 ?x410 (* 2.0 S_0) L_1) 0.0)))
 (let ((?x1292 (* 2.0 L_1)))
 (let ((?x9776 (* 2.0 S_0)))
 (let ((?x1291 (* (- 2.0) A_1)))
 (let (($x126884 (or $x56 (<= (+ ?x439 L_2 S_5 A_4 ?x448 ?x1291 ?x9776 ?x1292) (- 5.0)))))
 (let (($x1701 (<= (+ (* (- 1.0) S_5) (* (- 1.0) L_3) A_4) 0.0)))
 (let (($x249563 (or $x1701 (<= (+ (* (- (/ 2.0 3.0)) S_5) (* (/ 5.0 3.0) S_1) ?x1312) 0.0) (<= (+ A_2 ?x296 (* (- 1.0) S_5) S_1 ?x1312) 0.0))))
 (let (($x96726 (or $x76 $x5122 (<= (+ S_5 L_3 ?x442 A_4 ?x448 ?x410 S_0) 0.0))))
 (let ((?x313 (* (- 1.0) L_3)))
 (let ((?x919 (+ L_2 ?x313)))
 (let (($x114762 (<= 0.0 ?x919)))
 (let (($x32301 (<= (+ ?x1289 ?x1290 ?x1591 ?x2669 ?x1232 ?x410 ?x1312 ?x1188) 0.0)))
 (let ((?x1688 (* (- (/ 1.0 2.0)) L_1)))
 (let ((?x1675 (* (/ 1.0 2.0) A_1)))
 (let ((?x1671 (* (- (/ 1.0 2.0)) A_3)))
 (let ((?x1698 (* (/ 3.0 2.0) L_3)))
 (let (($x1699 (<= (+ S_5 ?x1698 ?x1671 ?x445 ?x1675 ?x1688) 0.0)))
 (let (($x32291 (<= (+ ?x1289 ?x1290 ?x424 L_3 ?x442 A_1 ?x1312 ?x279) 0.0)))
 (let (($x1747 (<= (+ A_2 ?x296 L_3 ?x442 A_1 (* (- 1.0) A_0) ?x279 L_0) 0.0)))
 (let (($x1722 (<= (+ A_2 ?x296 L_3 ?x442 A_1 (* (- 1.0) S_1) ?x279) 0.0)))
 (let (($x30346 (<= (+ S_5 ?x1698 (* (- (/ 3.0 2.0)) A_3) A_4 ?x448 ?x1675 ?x1688) 0.0)))
 (let ((?x9480 (* (- 2.0) S_0)))
 (let ((?x431 (* (- 1.0) S_5)))
 (let ((?x1304 (* (- 3.0) L_2)))
 (let ((?x1303 (* 3.0 A_2)))
 (let (($x28293 (<= (+ ?x1303 ?x1304 ?x431 ?x1591 ?x2669 ?x1232 ?x9480 ?x1188) 0.0)))
 (let ((?x48196 (* (- 6.0) A_3)))
 (let ((?x48190 (* 6.0 L_3)))
 (let ((?x48201 (* (- 6.0) L_2)))
 (let ((?x48203 (* 6.0 A_2)))
 (let ((?x8274 (* (/ 1.0 3.0) L_1)))
 (let ((?x7153 (* (- (/ 1.0 3.0)) A_1)))
 (let ((?x7159 (* (- (/ 1.0 3.0)) A_5)))
 (let ((?x9046 (* (/ 1.0 3.0) A_4)))
 (let ((?x2383 (* (/ 1.0 3.0) S_5)))
 (let (($x124418 (<= (+ (* (- (/ 1.0 3.0)) A_2) (* (/ 1.0 3.0) L_2) ?x2383 ?x437 S_0 L_1) (- 5.0))))
 (let (($x126455 (or $x66 (<= (+ ?x439 L_2 (* (/ 1.0 2.0) S_3) (* (/ 1.0 2.0) S_1)) (- 5.0)))))
 (let ((?x404 (* (- 1.0) S_1)))
 (let ((?x2019 (* (- 4.0) L_2)))
 (let ((?x2018 (* 4.0 A_2)))
 (let (($x18895 (<= (+ S_5 ?x9909 ?x7262 (* 3.0 A_1) ?x1312 (* (- 3.0) L_1)) 0.0)))
 (let (($x250394 (or $x66 (<= (+ ?x439 L_2 (* (- 1.0) A_0) (* 2.0 S_1) L_0) (- 5.0)))))
 (let (($x17891 (<= (+ L_3 ?x442 A_1 S_1 ?x1312 ?x279) 0.0)))
 (let (($x243457 (or $x66 (<= (+ ?x439 L_2 A_1 ?x279) (- 10.0)) (<= (+ ?x439 L_2 S_0) (- 15.0)))))
 (let ((?x7390 (* 2.0 L_0)))
 (let ((?x6011 (* (- 5.0) L_1)))
 (let ((?x10543 (* (- 2.0) A_0)))
 (let ((?x6280 (* 5.0 A_1)))
 (let ((?x18889 (* (- 5.0) A_3)))
 (let ((?x17244 (* 5.0 L_3)))
 (let (($x59455 (<= (+ S_5 A_4 ?x448 ?x437 (* (- 3.0) S_3) (* 3.0 S_1) L_1) 0.0)))
 (let ((?x5644 (* (- (/ 1.0 2.0)) A_5)))
 (let ((?x10426 (* (/ 1.0 2.0) A_4)))
 (let ((?x7657 (* (/ 1.0 2.0) S_5)))
 (let (($x48199 (<= (+ (* 5.0 A_2) (* (- 5.0) L_2) S_5 ?x17244 ?x18889 ?x404) 0.0)))
 (let (($x96092 (or $x5122 (<= (+ ?x439 L_2 S_5 (* (- 3.0) S_2) (* 3.0 S_0)) 0.0))))
 (let (($x2828 (<= (+ A_2 ?x296 S_5 ?x424 L_3 ?x445) 0.0)))
 (let (($x248277 (or $x2828 (<= (+ S_5 L_3 ?x445 ?x437 S_0 L_1) 0.0) (<= (+ S_5 (* (- (/ 1.0 2.0)) S_4) L_3 ?x445 ?x1675 ?x1688) 0.0))))
 (let ((?x11827 (* (- (/ 5.0 2.0)) L_1)))
 (let ((?x14239 (* (/ 5.0 2.0) A_1)))
 (let ((?x14344 (* (- (/ 5.0 2.0)) A_3)))
 (let ((?x14238 (* (/ 5.0 2.0) L_3)))
 (let (($x14370 (<= (+ S_4 ?x14238 ?x14344 ?x14239 ?x1312 ?x11827) 0.0)))
 (let (($x54662 (<= (+ ?x1297 ?x1298 ?x431 (* (- 3.0) L_3) (* 3.0 A_3) A_1 ?x279) 0.0)))
 (let ((?x7672 (* 4.0 A_3)))
 (let ((?x14166 (* (- 4.0) L_3)))
 (let ((?x1310 (* 4.0 L_2)))
 (let ((?x1309 (* (- 4.0) A_2)))
 (let (($x82743 (or $x1714 (<= (+ S_5 L_3 ?x445 (* (- (/ 1.0 2.0)) S_3) (* (/ 1.0 2.0) S_0)) 0.0) (<= (+ S_5 L_3 ?x445 A_1 ?x417 ?x279) 0.0))))
 (let (($x95706 (or $x1714 (<= (+ (* (/ 2.0 5.0) S_5) ?x417 (* (/ 3.0 5.0) S_0)) 0.0) (<= (+ ?x7959 ?x46162 ?x39239 ?x417) 0.0))))
 (let ((?x1727 (* (- (/ 3.0 2.0)) L_1)))
 (let ((?x1726 (* (/ 3.0 2.0) A_1)))
 (let ((?x1725 (* (- (/ 3.0 2.0)) A_3)))
 (let (($x11278 (<= (+ ?x1698 ?x1725 ?x1726 S_2 ?x1312 ?x1727) 0.0)))
 (let (($x11868 (<= (+ ?x1289 ?x1290 S_5 (* (- 3.0) S_4)) 0.0)))
 (let (($x248545 (or $x76 (<= (+ ?x2018 ?x2019 S_4 ?x13993 ?x14311 (* (- 1.0) A_0) L_0) 0.0))))
 (let (($x249468 (or $x66 (<= (+ ?x439 L_2 S_5 A_4 ?x448 ?x417 S_0) 0.0) (<= (+ ?x439 L_2 S_5 A_4 ?x448 ?x1232 ?x1188 ?x7426) 0.0))))
 (let (($x45395 (<= (+ (* 5.0 A_2) (* (- 5.0) L_2) S_4 ?x17244 ?x18889 ?x1312) 0.0)))
 (let (($x117202 (<= (+ ?x1289 ?x1290 ?x1591 ?x2669 A_1 ?x1312 ?x279) (- 5.0))))
 (let (($x29908 (<= (+ ?x1591 ?x2669 ?x1232 S_3 ?x1312 ?x1188) 0.0)))
 (let ((?x1300 (* (- 3.0) L_1)))
 (let ((?x1993 (* (- 2.0) S_1)))
 (let ((?x7406 (* 2.0 S_3)))
 (let ((?x1299 (* 3.0 A_1)))
 (let ((?x1988 (* 2.0 S_1)))
 (let ((?x6632 (* 2.0 A_3)))
 (let ((?x11512 (* (- 2.0) L_3)))
 (let (($x247937 (or $x56 $x1701 (<= (+ ?x439 L_2 ?x431 ?x11512 ?x6632 ?x1291 ?x1988 ?x1292) 0.0))))
 (let (($x44579 (<= (+ ?x1297 ?x1298 ?x431 (* (- 3.0) L_3) (* 3.0 A_3) S_1) 0.0)))
 (let ((?x1340 (* (- 1.0) A_0)))
 (let ((?x20034 (* (- 5.0) L_2)))
 (let ((?x22634 (* 5.0 A_2)))
 (let (($x124437 (or $x56 (<= (+ (* (/ 1.0 5.0) S_5) ?x437 (* (/ 4.0 5.0) S_0) L_1) (- 5.0)))))
 (let (($x64818 (<= (+ S_5 (* (- (/ 3.0 2.0)) S_4) A_4 ?x448 ?x437 (* (/ 3.0 2.0) S_1) L_1) 0.0)))
 (let (($x37132 (<= (+ A_2 ?x296 S_5 (* (- 2.0) S_4) A_4 ?x448 ?x437 S_1 L_1) 0.0)))
 (let ((?x7970 (* (- (/ 1.0 2.0)) S_5)))
 (let ((?x9643 (* (- (/ 1.0 2.0)) L_2)))
 (let ((?x9914 (* (/ 1.0 2.0) A_2)))
 (let (($x78696 (or $x1701 (<= (+ (* (- (/ 1.0 3.0)) S_5) ?x1340 (* (/ 4.0 3.0) S_1) L_0) 0.0) (<= (+ ?x9914 ?x9643 ?x7970 ?x1340 S_1 L_0) 0.0))))
 (let ((?x6013 (* 4.0 L_1)))
 (let ((?x745 (* (- 4.0) A_1)))
 (let ((?x7431 (* (- 2.0) S_5)))
 (let (($x121818 (<= (+ ?x2383 ?x9046 ?x7159 (* (- (/ 4.0 3.0)) A_1) S_0 (* (/ 4.0 3.0) L_1)) (- 5.0))))
 (let (($x10494 (<= (+ (* (/ 2.0 3.0) S_4) (* (/ 4.0 3.0) A_1) (* (- (/ 4.0 3.0)) L_1) ?x7426) 0.0)))
 (let (($x248191 (or $x76 $x1699 (<= (+ A_2 ?x296 S_5 ?x1591 ?x442 ?x445 A_1 ?x410 ?x279) 0.0))))
 (let (($x39847 (<= (+ A_2 ?x296 S_5 ?x1591 ?x2669 A_4 ?x448 A_1 ?x410 ?x279) 0.0)))
 (let (($x75527 (or $x66 (<= (+ ?x439 L_2 S_5 (* (- 2.0) S_4) A_4 ?x448 ?x3997) 0.0))))
 (let (($x6021 (<= (+ (* (- 5.0) A_2) (* 5.0 L_2) S_4 ?x6280 ?x1312 ?x6011) 0.0)))
 (let ((?x1313 (* (- 4.0) L_1)))
 (let ((?x1311 (* 4.0 A_1)))
 (let ((?x5769 (* 2.0 S_4)))
 (let (($x117471 (<= (+ A_2 ?x296 ?x431) (- 10.0))))
 (let (($x123207 (or $x1701 (<= (+ (* (- (/ 1.0 4.0)) S_5) (* (/ 1.0 4.0) S_0)) (- 5.0)) $x117471 (<= (+ (* (- (/ 1.0 3.0)) S_5) (* (/ 1.0 3.0) A_1) (* (- (/ 1.0 3.0)) L_1)) (- 5.0)))))
 (let (($x6072 (<= (+ (* (- 2.0) A_2) (* 2.0 L_2) S_4 ?x1232 ?x417 ?x1188) 0.0)))
 (let (($x23663 (<= (+ (* (- 5.0) A_2) (* 5.0 L_2) S_5 ?x6280 ?x404 ?x6011) 0.0)))
 (let ((?x22654 (* (- 6.0) L_1)))
 (let ((?x22653 (* 6.0 A_1)))
 (let ((?x22631 (* 6.0 L_2)))
 (let ((?x22611 (* (- 6.0) A_2)))
 (let (($x23681 (<= (+ (* (- 2.0) A_2) (* 2.0 L_2) S_5 ?x424 ?x1232 ?x1188) 0.0)))
 (let (($x77460 (or (<= (+ (* (/ 3.0 5.0) S_5) ?x424 (* (/ 2.0 5.0) S_0)) 0.0) $x11868 (<= (+ ?x7657 ?x424 ?x1675 ?x1688) 0.0))))
 (let (($x23687 (<= (+ (* (- 5.0) A_2) (* 5.0 L_2) S_5 ?x6280 ?x1340 ?x6011 L_0) 0.0)))
 (let ((?x2382 (* (- (/ 2.0 3.0)) L_2)))
 (let ((?x2381 (* (/ 2.0 3.0) A_2)))
 (let (($x245250 (or $x76 (<= (+ S_5 ?x1591 ?x2669 ?x1232 ?x410 ?x1188) 0.0) (<= (+ ?x2381 ?x2382 ?x2383 L_3 ?x442 A_1 ?x410 ?x279) 0.0))))
 (let (($x242613 (or $x2828 (not (<= (+ (* (/ 1.0 3.0) S_4) ?x437 (* (/ 2.0 3.0) S_0) L_1) 0.0)) (<= (+ S_5 (* (- (/ 1.0 3.0)) S_4) L_3 ?x445 (* (/ 1.0 3.0) S_0)) 0.0))))
 (let (($x122388 (or $x76 (<= (+ L_3 ?x442 ?x10543 (* 3.0 S_1) ?x7390) (- 5.0)) (<= (+ A_2 ?x296 L_3 ?x442 ?x1340 S_1 L_0) (- 5.0)))))
 (let (($x41932 (<= (+ ?x1297 ?x1298 ?x424 (* (- 3.0) L_3) (* 3.0 A_3) S_0) 0.0)))
 (let (($x38008 (<= (+ (* (- 2.0) A_2) (* 2.0 L_2) ?x424 ?x11512 ?x6632 A_1 ?x279) 0.0)))
 (let (($x117904 (<= (+ (* (- 2.0) A_2) (* 2.0 L_2) ?x313 A_3 A_1 ?x279) (- 5.0))))
 (let (($x49003 (<= (+ (* (- 2.0) A_2) (* 2.0 L_2) ?x424 ?x11512 ?x6632 S_1) 0.0)))
 (let ((?x1306 (* 3.0 L_1)))
 (let ((?x1305 (* (- 3.0) A_1)))
 (let ((?x6865 (* 3.0 A_3)))
 (let ((?x7477 (* (- 3.0) L_3)))
 (let ((?x1404 (+ ?x439 L_2 S_1)))
 (let (($x122051 (<= (- 5.0) ?x1404)))
 (let (($x251635 (or $x66 (<= (+ (* (- 2.0) A_2) (* 2.0 L_2) ?x313 A_3 S_1) (- 5.0)))))
 (let (($x241684 (or $x56 (not (<= 0.0 (+ A_2 ?x296 L_3 ?x445 ?x437 S_3 L_1))) $x1701)))
 (let (($x43368 (<= (+ S_5 (* (- 3.0) S_4) A_4 ?x448 ?x437 (* 3.0 S_2) L_1) 0.0)))
 (let (($x36343 (<= (+ (* (- 2.0) A_2) (* 2.0 L_2) ?x431 ?x11512 ?x6632 S_2) 0.0)))
 (let (($x47639 (<= (+ (* (- 2.0) A_2) (* 2.0 L_2) ?x11512 ?x6632 ?x417 S_0) 0.0)))
 (let (($x245755 (or $x66 (<= (+ ?x439 L_2 ?x313 A_3 A_1 ?x417 ?x279) 0.0) $x47639)))
 (let ((?x1707 (* (/ 1.0 2.0) L_1)))
 (let ((?x1706 (* (- (/ 1.0 2.0)) A_1)))
 (let ((?x1705 (* (/ 1.0 2.0) A_3)))
 (let ((?x1704 (* (- (/ 1.0 2.0)) L_3)))
 (let (($x251004 (or $x1714 (not (<= (- 5.0) (+ ?x437 S_0 L_1))) (<= (+ A_1 ?x279 ?x417) (- 5.0)))))
 (let ((?x116160 (+ ?x437 S_0 L_1)))
 (let (($x116161 (<= (- 5.0) ?x116160)))
 (let (($x35829 (<= (+ A_2 ?x296 L_3 ?x442 (* (/ 1.0 2.0) S_1) (* (- (/ 1.0 2.0)) S_0)) 0.0)))
 (let (($x117019 (<= (+ ?x439 L_2 ?x437 S_3 S_0 L_1) (- 5.0))))
 (let (($x119656 (or $x66 $x117019 (<= (+ ?x439 L_2 ?x1675 ?x1688 (* (/ 1.0 2.0) S_3)) (- 5.0)))))
 (let (($x117975 (or $x66 (<= 0.0 (+ ?x437 (* (/ 1.0 3.0) S_3) (* (/ 2.0 3.0) S_0) L_0)) (<= (+ ?x439 L_2 (* (/ 2.0 3.0) S_3) (* (/ 1.0 3.0) S_0)) (- 5.0)))))
 (let (($x107981 (<= (+ A_2 ?x296 ?x424) (- 5.0))))
 (let (($x119632 (or (<= (+ (* (- (/ 1.0 3.0)) S_4) (* (/ 1.0 3.0) S_0)) (- 5.0)) $x107981 (<= (+ (* (- (/ 1.0 2.0)) S_4) ?x1675 ?x1688) (- 5.0)))))
 (let (($x48173 (or $x2828 (<= (+ S_5 (* (- (/ 1.0 2.0)) S_4) L_3 ?x445 (* (/ 1.0 2.0) S_1)) 0.0))))
 (let (($x537 (<= 0.0 (+ A_2 ?x296 L_3 ?x445 ?x437 S_3 L_1))))
 (let (($x5829 (<= (+ (* (- 2.0) A_2) (* 2.0 L_2) ?x1232 S_1 ?x1312 ?x1188) 0.0)))
 (let (($x118258 (or $x56 (<= (+ ?x437 (* (/ 1.0 3.0) S_3) (* (/ 2.0 3.0) S_0) L_1) (- 5.0)))))
 (let (($x118214 (or $x56 $x76 (<= (+ (* (/ 1.0 2.0) L_3) ?x1671 ?x1706 S_2 ?x1707) (- 5.0)))))
 (let (($x247982 (or $x56 (<= (+ ?x1704 ?x1705 (* (- (/ 3.0 2.0)) A_1) S_0 (* (/ 3.0 2.0) L_1)) (- 5.0)))))
 (let ((?x14314 (* (/ 3.0 2.0) L_1)))
 (let ((?x14326 (* (- (/ 3.0 2.0)) A_1)))
 (let (($x17426 (<= (+ ?x424 (* (- (/ 3.0 2.0)) L_3) (* (/ 3.0 2.0) A_3) ?x14326 S_0 ?x14314) 0.0)))
 (let (($x15297 (<= (+ (* (- 2.0) A_2) (* 2.0 L_2) ?x1232 ?x1340 S_2 ?x1188 L_0) 0.0)))
 (let (($x29549 (or (<= (+ A_2 ?x296 ?x424 ?x1340 S_1 L_0) 0.0) (<= (+ (* (- (/ 1.0 2.0)) S_4) ?x1340 (* (/ 3.0 2.0) S_1) L_0) 0.0))))
 (let (($x595 (not (<= 0.0 (+ ?x279 L_0)))))
 (let (($x15323 (<= (+ (* (- 2.0) A_2) (* 2.0 L_2) ?x1232 S_2 ?x404 ?x1188) 0.0)))
 (let (($x244314 (or $x56 $x76 (<= (+ A_2 ?x296 (* (/ 1.0 2.0) L_3) ?x1671 ?x1706 ?x1707) 0.0))))
 (let (($x251458 (or $x1701 (<= (+ (* (- 3.0) S_5) ?x1340 (* 4.0 S_3) L_0) 0.0))))
 (let (($x246288 (or $x66 (<= (+ (* (- 2.0) A_2) (* 2.0 L_2) A_1 S_3 ?x279) (- 5.0)))))
 (let (($x6798 (or (<= (+ ?x1289 ?x1290 (* (- 2.0) S_4) S_1 ?x1312) 0.0) (<= (+ ?x424 ?x1988 ?x1312) 0.0))))
 (let (($x97915 (not $x114762)))
 (let (($x243120 (or $x66 (<= 0.0 (+ A_2 ?x296 (* (/ 1.0 2.0) L_3) ?x1671 ?x1706 ?x1707)))))
 (let (($x1288 (<= (+ (* (- 2.0) A_2) (* 2.0 L_2) ?x1232 S_3 ?x410 ?x1188) 0.0)))
 (let (($x140 (>= S_5 S_4)))
 (let (($x128 (>= S_1 S_0)))
 (let (($x131 (>= S_2 S_1)))
 (let (($x134 (>= S_3 S_2)))
 (let (($x137 (>= S_4 S_3)))
 (let (($x142 (>= A_1 A_0)))
 (let (($x143 (>= A_2 A_1)))
 (let (($x145 (>= A_4 A_3)))
 (let (($x146 (>= A_5 A_4)))
 (and (<= (+ A_2 ?x296) S_4) (not (<= (+ A_3 ?x313) S_4)) $x146 $x145 $x143 $x142 $x137 $x134 $x131 $x128 $x140 (or $x595 $x56) (or $x66 (<= (+ ?x439 L_2 A_1 ?x279) (- 5.0))) (or $x97915 $x76) (or $x66 $x1288) $x243120 (or $x56 (<= (+ ?x437 S_1 L_1) (- 5.0))) (or $x56 (<= (+ ?x296 ?x424 A_3 ?x437 S_1 L_1) 0.0) $x97915) (<= (+ S_5 L_3 ?x448) 0.0) $x6798 (or $x107981 (<= (+ (* (- (/ 1.0 2.0)) S_4) (* (/ 1.0 2.0) S_1)) (- 5.0))) (or $x76 (<= (+ L_3 ?x442 S_3) (- 5.0))) (or $x1701 (<= (+ ?x431 S_3) (- 5.0))) (or $x56 (<= (+ ?x424 ?x313 A_3 ?x437 S_1 L_1) 0.0)) (or (<= (+ (* (/ 1.0 5.0) S_5) ?x410 (* (/ 4.0 5.0) S_0)) 0.0) $x5122) (or $x1701 (<= (+ (* (- 4.0) S_5) (* 5.0 S_3) ?x1312) 0.0)) $x246288 $x251458 (or $x5122 (<= (+ ?x410 S_0) (- 5.0))) (or $x66 (not (<= 0.0 (+ ?x296 L_1)))) (or $x1714 (<= (+ ?x417 S_1) (- 5.0))) (or $x1714 (<= (+ ?x1340 ?x417 ?x1988 L_0) 0.0)) (or $x1701 (<= (+ ?x7970 (* (/ 1.0 2.0) S_2)) (- 5.0))) (or $x66 $x5122 (<= 0.0 (+ A_2 ?x296 L_3 ?x442 S_2 ?x1312))) (or $x1714 (<= (+ S_4 (* (- 3.0) S_3) ?x1988) 0.0)) (or $x76 (<= (+ ?x5769 ?x1591 ?x2669 ?x1232 ?x7426 ?x1188) 0.0)) (or $x56 $x1714 (<= (+ ?x313 A_3 ?x437 ?x7426 ?x1988 L_1) 0.0)) (or $x76 (<= (+ ?x5769 ?x13993 ?x14311 ?x1311 ?x10543 ?x1313 ?x7390) 0.0)) (or $x56 (<= (+ A_2 ?x296 ?x437 ?x417 S_1 L_1) 0.0)) (or $x66 (<= (+ ?x439 L_2 S_2) (- 5.0))) (or $x11868 (<= (+ S_5 (* (- 2.0) S_4) S_1) 0.0)) (or $x56 (<= (+ ?x439 L_2 ?x313 A_3 ?x437 S_0 L_1) 0.0)) $x244314 (or $x66 (<= (+ ?x1297 ?x1298 ?x1299 ?x1340 S_3 ?x1300 L_0) 0.0)) (or $x66 (<= (+ ?x1297 ?x1298 ?x1299 S_3 ?x404 ?x1300) 0.0)) (or $x76 (<= (+ ?x1591 ?x2669 ?x1232 ?x3997 ?x1993 ?x1188) 0.0)) (or $x66 $x15323) (or $x1701 (<= (+ (* (- 3.0) S_5) (* 4.0 S_3) ?x404) 0.0)) (or $x76 $x595 (<= (+ L_3 ?x442 A_1 ?x1340 S_2) 0.0)) $x29549 (or $x76 (<= (+ L_3 ?x442 A_1 S_3 ?x410 ?x279) 0.0)) (or $x76 (<= (+ ?x1591 ?x2669 ?x1232 ?x10543 ?x3997 ?x1188 ?x7390) 0.0)) (or $x1701 (<= (+ ?x8151 ?x7655 ?x7970 S_3) 0.0)) (or $x5122 (<= (+ ?x439 L_2 S_3 ?x410 S_0) 0.0)) (or $x76 $x1747 (<= (+ ?x9909 ?x7262 ?x1299 ?x10543 ?x7406 ?x1300 ?x7390) 0.0)) (or $x76 $x1747 $x29908) (or $x5122 (<= (+ (* (/ 1.0 3.0) S_3) ?x410 (* (/ 2.0 3.0) S_0)) 0.0)) (or $x56 (<= (+ A_2 ?x296 ?x437 ?x410 S_0 L_1) 0.0)) (or $x66 (<= (+ ?x1297 ?x1298 ?x1299 S_2 ?x1312 ?x1300) 0.0)) (or $x66 (<= (+ ?x1309 ?x1310 ?x1311 S_3 ?x1312 ?x1313) 0.0)) (or $x66 (<= ?x28992 0.0)) (or $x66 $x15297) (or $x76 (<= (+ ?x2018 ?x2019 ?x13993 ?x14311 S_3 ?x1312) 0.0)) (or $x76 (<= (+ ?x1303 ?x1304 ?x9909 ?x7262 ?x1340 S_3 L_0) 0.0)) (or $x1701 (<= (+ ?x431 ?x1340 ?x3997 L_0) 0.0)) (or $x56 $x17426) (or $x56 (<= ?x5342 (- 5.0))) $x247982 (or $x56 (<= (+ ?x1291 S_2 S_0 ?x1292) (- 10.0))) $x118214 (or $x56 $x1701 (<= (+ ?x7431 ?x313 A_3 ?x437 ?x7406 L_1) 0.0)) $x118258 (or $x66 (<= (+ ?x439 ?x424 A_3 S_2) 0.0) $x97915) (or $x56 (<= (+ A_2 ?x296 ?x424 ?x437 S_2 L_1) 0.0)) (or $x56 (<= (+ ?x1289 ?x1290 ?x424 ?x1291 S_1 ?x1292) 0.0)) (or $x66 (<= (+ ?x439 L_2 A_1 ?x1340 S_1 ?x279 L_0) 0.0)) (or $x56 (<= (+ A_2 ?x296 ?x1291 S_0 ?x1292) (- 5.0))) (or $x66 $x5829) (or $x56 $x1701 (<= (+ ?x1303 ?x1304 ?x431 ?x1305 S_1 ?x1306) 0.0)) (or $x76 (<= (+ L_3 ?x442 S_2) (- 10.0))) (or $x66 (<= (+ ?x1297 ?x1298 S_5 ?x1299 ?x417 ?x1300) 0.0)) (or $x56 $x537 (<= (+ A_2 ?x296 ?x431 ?x437 S_3 L_1) 0.0)) (or $x76 (<= ?x36322 (- 5.0))) $x48173 (or $x1714 (<= (+ ?x7959 ?x417 (* (/ 3.0 4.0) S_1)) 0.0)) (or $x76 (<= (+ ?x1289 ?x1290 ?x1591 ?x2669 ?x1340 S_2 L_0) 0.0)) (or $x66 (<= (+ ?x439 L_2 ?x424 ?x313 A_3 S_2) 0.0)) (or $x56 (<= (+ ?x11512 ?x6632 ?x1291 ?x7426 ?x9776 ?x1292) 0.0)) (or $x56 $x1701 (<= (+ ?x7970 ?x437 (* (/ 3.0 2.0) S_2) L_1) (- 5.0))) $x119632 $x117975 $x119656 (or $x66 $x1701 (<= (+ ?x439 L_2 ?x431 ?x7406) (- 5.0))) (or $x76 (<= (+ ?x1289 ?x1290 ?x1591 ?x2669 S_3 ?x410) 0.0)) (or $x56 (<= (+ ?x1303 ?x1304 ?x424 ?x1305 S_0 ?x1306) 0.0)) (or $x76 $x35829) (or $x76 (<= (+ ?x1289 ?x1290 ?x1591 ?x2669 ?x437 S_3 L_1) 0.0)) (or $x56 (<= (+ ?x1289 ?x1290 ?x1291 ?x417 S_0 ?x1292) 0.0)) (or $x1714 (<= (+ (* (- (/ 1.0 2.0)) S_3) (* (/ 1.0 2.0) S_0)) (- 5.0)) $x116161) $x251004 (or $x76 $x1747 (<= (+ L_3 ?x442 A_1 ?x10543 ?x1988 ?x279 ?x7390) 0.0)) (or $x76 (<= (+ ?x1303 ?x1304 S_5 ?x9909 ?x7262 ?x417) 0.0)) (or $x76 $x1714 (<= (+ ?x5870 ?x9909 ?x7262 ?x1299 ?x7426 ?x1300) 0.0)) (or $x1714 (<= (+ ?x7426 (* 3.0 S_1) ?x1312) 0.0)) (or $x66 $x1701 (<= (+ ?x439 L_2 ?x431 ?x313 A_3 S_3) 0.0)) (or $x1701 (<= (+ (* (- (/ 2.0 3.0)) S_5) ?x7153 ?x8274 S_3) 0.0)) (or $x76 (<= ?x26542 0.0)) (or $x66 (<= (+ ?x439 L_2 ?x313 A_3 ?x417 S_1) 0.0)) (or $x56 (<= (+ ?x1704 ?x1705 ?x1706 ?x410 S_0 ?x1707) 0.0)) (or $x56 (<= (+ ?x424 ?x1704 ?x1705 ?x1706 S_2 ?x1707) 0.0)) $x245755 (or $x66 $x1701 $x36343) (or $x76 (<= ?x36321 0.0)) (or $x56 $x43368) (or $x56 (<= (+ S_5 ?x424 A_4 ?x448 ?x437 S_0 L_1) 0.0)) (or $x56 $x1701 (<= (+ ?x1289 ?x1290 ?x431 ?x1291 S_2 ?x1292) 0.0)) (or $x56 $x1701 (<= (+ ?x2018 ?x2019 ?x431 ?x745 S_0 ?x6013) 0.0)) (or $x66 (<= ?x1404 (- 10.0))) (or $x76 (<= (+ A_2 ?x296 L_3 ?x442 ?x1340 S_1 L_0) 0.0)) (or $x1701 (<= (+ (* (- (/ 1.0 3.0)) S_5) (* (/ 1.0 3.0) S_1)) (- 5.0)) $x117471) (or $x76 $x1714 $x17891) (or $x5122 (<= (+ S_5 L_3 ?x445 ?x410 S_0) 0.0)) (or $x1714 (<= (+ S_5 L_3 ?x445 ?x417 S_1) 0.0)) (or $x76 (<= (+ ?x1289 ?x1290 ?x1591 ?x2669 S_2 ?x404) 0.0)) (or $x76 $x1699 $x2828) (or $x56 (<= (+ S_5 L_3 ?x445 ?x437 S_0 L_1) (- 5.0))) $x241684 $x251635 (or $x76 (<= (+ ?x2383 L_3 ?x442 (* (/ 2.0 3.0) S_2)) (- 5.0))) (or $x1701 (<= (+ (* (- (/ 1.0 3.0)) S_5) ?x8451 ?x8502 S_2) 0.0)) (or $x56 (<= ?x116160 (- 10.0))) (or $x76 $x122051 (<= (+ L_3 ?x442 S_1) (- 15.0))) (or $x56 $x1701 (<= (+ ?x7431 ?x11512 ?x6632 ?x1291 ?x3997 ?x1292) 0.0)) (or $x66 (<= (+ ?x1309 ?x1310 S_4 ?x1311 ?x1340 ?x1313 L_0) 0.0)) (or $x56 $x1701 (<= (+ ?x7431 ?x7477 ?x6865 ?x1305 ?x1988 ?x1306) 0.0)) (or $x76 $x14370 $x117202) (or $x76 (<= (+ S_4 ?x1698 ?x1725 ?x1726 ?x410 ?x1727) 0.0)) (or $x66 $x49003) (or $x66 $x117904 (<= (+ ?x1297 ?x1298 ?x11512 ?x6632 S_0) (- 5.0))) (or $x66 $x38008 $x41932) $x122388 (or $x66 (<= (+ ?x1309 ?x1310 S_5 ?x1299 ?x1300) (- 5.0))) (or $x76 (<= (+ ?x1289 ?x1290 S_5 ?x9909 ?x7262) (- 5.0))) (or $x76 (<= (+ S_5 ?x1591 ?x2669 A_1 ?x279) (- 5.0)) $x121778) $x242613 $x245250 (or $x66 $x23687) $x77460 (or $x66 $x23681) (or $x66 (<= (+ ?x22611 ?x22631 S_5 ?x22653 ?x1312 ?x22654) 0.0)) (or $x66 $x23663) (or $x66 (<= (+ ?x1309 ?x1310 S_5 ?x1311 ?x410 ?x1313) 0.0)) (or $x76 (<= (+ ?x2018 ?x2019 S_5 ?x13993 ?x14311 ?x410) 0.0)) (or $x76 (<= (+ ?x1289 ?x1290 S_5 ?x424 ?x1591 ?x2669) 0.0)) (or $x76 $x1699 $x117005) (or $x76 $x1699 $x1714) (or $x66 $x6072) (or $x66 (<= (+ ?x1309 ?x1310 S_4 ?x1311 ?x404 ?x1313) 0.0)) (or $x1701 (<= (+ ?x7431 (* 3.0 S_3) ?x410) 0.0)) $x123207 (or $x56 $x1701 (<= (+ ?x7431 ?x437 (* 3.0 S_3) L_1) (- 5.0))) (or $x66 (<= (+ ?x1297 ?x1298 S_4 ?x1299 ?x410 ?x1300) 0.0)) (or $x66 (<= (+ ?x439 L_2 S_5 L_3 ?x445 A_1 ?x279) 0.0)) (or $x76 (<= (+ ?x1303 ?x1304 S_4 ?x9909 ?x7262 ?x410) 0.0)) (or $x76 (<= (+ ?x5769 ?x13993 ?x14311 ?x1311 ?x1993 ?x1313) 0.0)) (or $x76 (<= (+ (* (/ 1.0 2.0) L_3) ?x1671 ?x1675 ?x1688) (- 5.0))) (or $x76 $x11278 $x117202) (or $x76 $x1714 $x11278) (or $x66 $x6021) (or $x1701 (<= (+ ?x431 (* (/ 5.0 3.0) S_2) (* (- (/ 2.0 3.0)) S_0)) 0.0)) (or $x66 (<= (+ ?x8151 ?x7655 ?x7657 ?x10426 ?x5644 ?x417 S_1) 0.0)) $x75527 (or $x76 $x30346 $x39847) $x248191 (or $x76 (<= (+ ?x1303 ?x1304 ?x9909 ?x7262 S_2 ?x1312) 0.0)) (or $x1714 $x10494 (<= (+ ?x5016 ?x417 (* (/ 1.0 2.0) S_0)) 0.0)) (or $x56 $x121818) (or $x56 $x1701 (<= (+ ?x7431 ?x14166 ?x7672 ?x745 ?x9776 ?x6013) 0.0)) $x78696 (or $x56 $x37132 $x64818) (or $x56 $x117019) $x124437 (or $x76 $x1747 $x30346) (or $x76 $x30346 $x118757) (or $x76 (<= (+ ?x22634 ?x20034 S_5 ?x17244 ?x18889 ?x1340 L_0) 0.0)) (or $x66 $x5122 (<= (+ ?x8151 ?x7655 ?x7657 ?x10426 ?x5644 ?x410 S_0) 0.0)) (or $x76 $x11278 $x32291) (or $x76 $x1747 $x11278) (or $x76 $x1722 $x11278) (or $x66 $x1701 $x44579) $x247937 (or $x76 $x1714 $x30346) (or $x76 $x1722 (<= (+ ?x5870 ?x17244 ?x18889 ?x6280 ?x1993 ?x6011) 0.0)) (or $x76 $x1722 (<= (+ ?x9909 ?x7262 ?x1299 ?x7406 ?x1993 ?x1300) 0.0)) (or $x76 $x1722 $x29908) (or $x76 $x17891 $x32301) (or $x76 $x29908 $x32301) (or $x76 $x18895 $x117202) (or $x76 $x18895 $x32291) (or $x76 $x29908 $x117202) (or $x76 $x29908 $x32291) (or $x76 $x30346 $x117202) (or $x76 $x30346 $x32291) (or $x5122 (<= (+ (* (/ 1.0 4.0) S_4) ?x410 (* (/ 3.0 4.0) S_0)) 0.0)) (or $x76 $x1722 $x18895) (or $x76 (<= (+ ?x1289 ?x1290 S_4 ?x1591 ?x2669 ?x417) 0.0)) (or $x76 $x45395) (or $x76 (<= (+ A_2 ?x296 L_3 ?x442 ?x437 L_1 S_2) 0.0)) $x249468 (or $x76 $x1714 $x14370) (or $x76 $x14370 $x32301) (or $x1701 (<= (+ ?x431 ?x3997 ?x404) 0.0)) (or $x76 $x1714 $x18895) $x248545 (or $x76 (<= (+ ?x1303 ?x1304 S_4 ?x9909 ?x7262 ?x437 L_1) 0.0)) (or $x76 $x1722 $x30346) (or $x76 $x11868 (<= (+ S_5 ?x424 L_3 ?x442 A_1 ?x279) 0.0)) (or $x76 $x1701 $x11278 $x28293) $x95706 $x82743 (or $x66 $x1701 (<= (+ ?x1309 ?x1310 ?x431 ?x14166 ?x7672 S_0) 0.0) $x54662) (or $x76 $x1747 $x17891) (or $x76 $x17891 $x117202) (or $x76 $x1701 $x14370 $x28293) (or $x76 $x1747 $x14370) (or $x76 $x1722 $x14370) $x248277 $x96092 (or $x76 $x17891 $x32291) (or $x76 (<= (+ ?x2018 ?x2019 S_5 ?x13993 ?x14311 ?x437 L_1) 0.0)) (or $x76 $x48199) (or $x76 (<= (+ ?x1303 ?x1304 ?x9909 ?x7262 S_3 ?x404) 0.0)) (or $x66 (<= (+ ?x9498 ?x9495 ?x7657 ?x10426 ?x5644 S_1) (- 5.0))) (or $x76 (<= (+ S_5 ?x1591 ?x2669 A_4 ?x448 S_2) (- 5.0))) (or $x56 $x1714 $x59455) (or $x76 $x1747 (<= (+ ?x5870 ?x17244 ?x18889 ?x6280 ?x10543 ?x6011 ?x7390) 0.0)) $x243457 (or $x76 $x1701 $x17891 $x28293) (or $x76 $x1701 $x18895 $x28293) (or $x76 $x1701 $x28293 $x29908) $x250394 (or $x76 $x18895 $x32301) (or $x76 $x1747 $x18895) (or $x76 $x30346 $x44310) (or $x76 (<= (+ ?x2018 ?x2019 S_4 ?x13993 ?x14311 ?x404) 0.0)) $x126455 (or $x56 $x124418) (or $x56 (<= (+ ?x2383 ?x9046 ?x7159 ?x7153 ?x410 S_0 ?x8274) 0.0)) (or $x76 (<= (+ ?x48203 ?x48201 S_5 ?x48190 ?x48196 ?x1312) 0.0)) (or $x76 $x1701 $x28293 $x30346) (or $x76 $x30346 $x32301) (or $x76 $x83676 (not $x122051)) (or $x1699 $x114762 $x117202) (or $x76 $x120971 $x121778 $x123977) (or $x76 (<= (+ L_3 ?x442 ?x437 L_1 ?x3997) (- 5.0))) (or $x1699 $x1722 $x114762) (or $x76 $x1699 $x1747) (or $x1699 $x32291 $x114762) (or $x1699 $x32301 $x114762) $x96726 $x249563 $x126884 (or $x56 $x65857) $x126935 (or $x56 $x1714 $x47391) (or $x66 $x125335) (or $x66 (<= (+ ?x439 L_2 S_5 ?x424 A_4 ?x448 S_1) 0.0)) $x127012 (or $x66 (<= (+ ?x439 L_2 ?x7959 (* (/ 3.0 4.0) S_1)) (- 5.0))) (or $x66 $x121702 (<= ?x28992 (- 10.0))) $x127112 $x244268 $x127175 (or $x5122 (<= (+ ?x8151 ?x7655 ?x5016 ?x410 S_0) 0.0)) (or $x66 (<= ?x62022 0.0) $x63459) $x127329 (or $x76 $x89966) (or $x76 (<= (+ S_5 ?x1591 ?x442 ?x445 S_2) (- 5.0))) (or $x76 (<= (+ S_5 ?x424 L_3 ?x442 A_4 ?x448 S_2) 0.0)) $x127751 $x127830 $x247412 $x127887 (or $x76 $x118757 $x120971 $x123977) (or $x76 $x44310 (<= (+ ?x5870 ?x424 ?x1591 ?x2669 ?x4024 ?x4014 S_1) 0.0)) $x128333 $x112708 $x250852 (or $x76 $x118757 (<= (+ ?x5870 ?x9909 ?x7262 ?x4024 ?x4014 S_1) (- 5.0))) $x249852 (or $x76 $x118757 $x124748 (<= (+ ?x5618 ?x13993 ?x14311 ?x4038 ?x7479 S_0) (- 5.0))) $x39 (<= (+ ?x1340 S_0 L_0) 0.0) (<= (+ ?x439 L_2 S_2) 0.0) (<= (+ ?x437 S_1 L_1) 0.0) (<= (+ ?x424 (* (/ 4.0 3.0) S_2) (* (- (/ 1.0 3.0)) S_0)) 0.0) (<= (+ ?x424 S_2) (- 5.0)) (<= (+ (* (- 2.0) S_4) (* 3.0 S_2) ?x404) 0.0) (<= (+ S_5 ?x424 L_3 ?x445 S_2) 0.0) (<= ?x5342 0.0) $x3366 (<= (+ ?x2383 ?x424 (* (/ 2.0 3.0) S_2)) 0.0)))))))))))))))))))))))))))))))))))))))))))))))))))))))))))))))))))))))))))))))))))))))))))))))))))))))))))))))))))))))))))))))))))))))))))))))))))))))))))))))))))))))))))))))))))))))))))))))))))))))))))))))))))))))))))))))))))))))))))))))))))))))))))))))))))))))))))))))
(check-sat)
